\ SCIP STATISTICS
\   Problem name     : neos-3072252-nete
\   Variables        : 576 (144 binary, 0 integer, 0 implicit integer, 432 continuous)
\   Constraints      : 432
Minimize
 Obj: +1 C0001 +1 C0002 +1 C0003 +1 C0004 +1 C0005 +1 C0006 +1 C0007 +1 C0008 +1 C0009 +1 C0010 +1 C0011
      +1 C0012 +1 C0013 +1 C0014 +1 C0015 +1 C0016 +1 C0017 +1 C0018 +1 C0019 +1 C0020 +1 C0021 +1 C0022
      +1 C0023 +1 C0024 +1 C0025 +1 C0026 +1 C0027 +1 C0028 +1 C0029 +1 C0030 +1 C0031 +1 C0032 +1 C0033
      +1 C0034 +1 C0035 +1 C0036 +1 C0037 +1 C0038 +1 C0039 +1 C0040 +1 C0041 +1 C0042 +1 C0043 +1 C0044
      +1 C0045 +1 C0046 +1 C0047 +1 C0048 +1 C0049 +1 C0050 +1 C0051 +1 C0052 +1 C0053 +1 C0054 +1 C0055
      +1 C0056 +1 C0057 +1 C0058 +1 C0059 +1 C0060 +1 C0061 +1 C0062 +1 C0063 +1 C0064 +1 C0065 +1 C0066
      +1 C0067 +1 C0068 +1 C0069 +1 C0070 +1 C0071 +1 C0072 +1 C0073 +1 C0074 +1 C0075 +1 C0076 +1 C0077
      +1 C0078 +1 C0079 +1 C0080 +1 C0081 +1 C0082 +1 C0083 +1 C0084 +1 C0085 +1 C0086 +1 C0087 +1 C0088
      +1 C0089 +1 C0090 +1 C0091 +1 C0092 +1 C0093 +1 C0094 +1 C0095 +1 C0096 +1 C0097 +1 C0098 +1 C0099
      +1 C0100 +1 C0101 +1 C0102 +1 C0103 +1 C0104 +1 C0105 +1 C0106 +1 C0107 +1 C0108 +1 C0109 +1 C0110
      +1 C0111 +1 C0112 +1 C0113 +1 C0114 +1 C0115 +1 C0116 +1 C0117 +1 C0118 +1 C0119 +1 C0120 +1 C0121
      +1 C0122 +1 C0123 +1 C0124 +1 C0125 +1 C0126 +1 C0127 +1 C0128 +1 C0129 +1 C0130 +1 C0131 +1 C0132
      +1 C0133 +1 C0134 +1 C0135 +1 C0136 +1 C0137 +1 C0138 +1 C0139 +1 C0140 +1 C0141 +1 C0142 +1 C0143
      +1 C0144
Subject to
 R0001: +1 C0433 +1 C0434 +1 C0435 +1 C0436 +1 C0437 +1 C0438 +1 C0439 +1 C0440 +1 C0441 +1 C0442 +1 C0443
  +1 C0444 +1 C0445 +1 C0446 +1 C0447 +1 C0448 +1 C0449 +1 C0450 +1 C0451 +1 C0452 +1 C0453 +1 C0454 +1 C0455
  +1 C0456 +1 C0457 +1 C0458 +1 C0459 +1 C0460 +1 C0461 +1 C0462 +1 C0463 +1 C0464 +1 C0465 +1 C0466 +1 C0467
  +1 C0468 +1 C0469 +1 C0470 +1 C0471 +1 C0472 +1 C0473 +1 C0474 +1 C0475 +1 C0476 +1 C0477 +1 C0478 +1 C0479
  +1 C0480 +1 C0481 +1 C0482 +1 C0483 +1 C0484 +1 C0485 +1 C0486 +1 C0487 +1 C0488 +1 C0489 +1 C0490 +1 C0491
  +1 C0492 +1 C0493 +1 C0494 +1 C0495 +1 C0496 +1 C0497 +1 C0498 +1 C0499 +1 C0500 +1 C0501 +1 C0502 +1 C0503
  +1 C0504 +1 C0505 +1 C0506 +1 C0507 +1 C0508 +1 C0509 +1 C0510 +1 C0511 +1 C0512 +1 C0513 +1 C0514 +1 C0515
  +1 C0516 +1 C0517 +1 C0518 +1 C0519 +1 C0520 +1 C0521 +1 C0522 +1 C0523 +1 C0524 +1 C0525 +1 C0526 +1 C0527
  +1 C0528 +1 C0529 +1 C0530 +1 C0531 +1 C0532 +1 C0533 +1 C0534 +1 C0535 +1 C0536 +1 C0537 +1 C0538 +1 C0539
  +1 C0540 +1 C0541 +1 C0542 +1 C0543 +1 C0544 +1 C0545 +1 C0546 +1 C0547 +1 C0548 +1 C0549 +1 C0550 +1 C0551
  +1 C0552 +1 C0553 +1 C0554 +1 C0555 +1 C0556 +1 C0557 +1 C0558 +1 C0559 +1 C0560 +1 C0561 +1 C0562 +1 C0563
  +1 C0564 +1 C0565 +1 C0566 +1 C0567 +1 C0568 +1 C0569 +1 C0570 +1 C0571 +1 C0572 +1 C0573 +1 C0574 +1 C0575
  +1 C0576 <= +10
 R0002: -1 C0001 +1 C0002 -1 C0145 +1 C0289 = +0
 R0003: -1 C0002 +1 C0003 -1 C0146 +1 C0290 = +0
 R0004: -1 C0003 +1 C0004 -1 C0147 +1 C0291 = +0
 R0005: -1 C0004 +1 C0005 -1 C0148 +1 C0292 = +0
 R0006: -1 C0005 +1 C0006 -1 C0149 +1 C0293 = +0
 R0007: -1 C0006 +1 C0007 -1 C0150 +1 C0294 = +0
 R0008: -1 C0007 +1 C0008 -1 C0151 +1 C0295 = +0
 R0009: -1 C0008 +1 C0009 -1 C0152 +1 C0296 = +0
 R0010: -1 C0009 +1 C0010 -1 C0153 +1 C0297 = +0
 R0011: -1 C0010 +1 C0011 -1 C0154 +1 C0298 = +0
 R0012: -1 C0011 +1 C0012 -1 C0155 +1 C0299 = +0
 R0013: -1 C0012 +1 C0013 -1 C0156 +1 C0300 = +0
 R0014: -1 C0013 +1 C0014 -1 C0157 +1 C0301 = +0
 R0015: -1 C0014 +1 C0015 -1 C0158 +1 C0302 = +0
 R0016: -1 C0015 +1 C0016 -1 C0159 +1 C0303 = +0
 R0017: -1 C0016 +1 C0017 -1 C0160 +1 C0304 = +0
 R0018: -1 C0017 +1 C0018 -1 C0161 +1 C0305 = +0
 R0019: -1 C0018 +1 C0019 -1 C0162 +1 C0306 = +0
 R0020: -1 C0019 +1 C0020 -1 C0163 +1 C0307 = +0
 R0021: -1 C0020 +1 C0021 -1 C0164 +1 C0308 = +0
 R0022: -1 C0021 +1 C0022 -1 C0165 +1 C0309 = +0
 R0023: -1 C0022 +1 C0023 -1 C0166 +1 C0310 = +0
 R0024: -1 C0023 +1 C0024 -1 C0167 +1 C0311 = +0
 R0025: -1 C0024 +1 C0025 -1 C0168 +1 C0312 = +0
 R0026: -1 C0025 +1 C0026 -1 C0169 +1 C0313 = +0
 R0027: -1 C0026 +1 C0027 -1 C0170 +1 C0314 = +0
 R0028: -1 C0027 +1 C0028 -1 C0171 +1 C0315 = +0
 R0029: -1 C0028 +1 C0029 -1 C0172 +1 C0316 = +0
 R0030: -1 C0029 +1 C0030 -1 C0173 +1 C0317 = +0
 R0031: -1 C0030 +1 C0031 -1 C0174 +1 C0318 = +0
 R0032: -1 C0031 +1 C0032 -1 C0175 +1 C0319 = +0
 R0033: -1 C0032 +1 C0033 -1 C0176 +1 C0320 = +0
 R0034: -1 C0033 +1 C0034 -1 C0177 +1 C0321 = +0
 R0035: -1 C0034 +1 C0035 -1 C0178 +1 C0322 = +0
 R0036: -1 C0035 +1 C0036 -1 C0179 +1 C0323 = +0
 R0037: -1 C0036 +1 C0037 -1 C0180 +1 C0324 = +0
 R0038: -1 C0037 +1 C0038 -1 C0181 +1 C0325 = +0
 R0039: -1 C0038 +1 C0039 -1 C0182 +1 C0326 = +0
 R0040: -1 C0039 +1 C0040 -1 C0183 +1 C0327 = +0
 R0041: -1 C0040 +1 C0041 -1 C0184 +1 C0328 = +0
 R0042: -1 C0041 +1 C0042 -1 C0185 +1 C0329 = +0
 R0043: -1 C0042 +1 C0043 -1 C0186 +1 C0330 = +0
 R0044: -1 C0043 +1 C0044 -1 C0187 +1 C0331 = +0
 R0045: -1 C0044 +1 C0045 -1 C0188 +1 C0332 = +0
 R0046: -1 C0045 +1 C0046 -1 C0189 +1 C0333 = +0
 R0047: -1 C0046 +1 C0047 -1 C0190 +1 C0334 = +0
 R0048: -1 C0047 +1 C0048 -1 C0191 +1 C0335 = +0
 R0049: -1 C0048 +1 C0049 -1 C0192 +1 C0336 = +0
 R0050: -1 C0049 +1 C0050 -1 C0193 +1 C0337 = +0
 R0051: -1 C0050 +1 C0051 -1 C0194 +1 C0338 = +0
 R0052: -1 C0051 +1 C0052 -1 C0195 +1 C0339 = +0
 R0053: -1 C0052 +1 C0053 -1 C0196 +1 C0340 = +0
 R0054: -1 C0053 +1 C0054 -1 C0197 +1 C0341 = +0
 R0055: -1 C0054 +1 C0055 -1 C0198 +1 C0342 = +0
 R0056: -1 C0055 +1 C0056 -1 C0199 +1 C0343 = +0
 R0057: -1 C0056 +1 C0057 -1 C0200 +1 C0344 = +0
 R0058: -1 C0057 +1 C0058 -1 C0201 +1 C0345 = +0
 R0059: -1 C0058 +1 C0059 -1 C0202 +1 C0346 = +0
 R0060: -1 C0059 +1 C0060 -1 C0203 +1 C0347 = +0
 R0061: -1 C0060 +1 C0061 -1 C0204 +1 C0348 = +0
 R0062: -1 C0061 +1 C0062 -1 C0205 +1 C0349 = +0
 R0063: -1 C0062 +1 C0063 -1 C0206 +1 C0350 = +0
 R0064: -1 C0063 +1 C0064 -1 C0207 +1 C0351 = +0
 R0065: -1 C0064 +1 C0065 -1 C0208 +1 C0352 = +0
 R0066: -1 C0065 +1 C0066 -1 C0209 +1 C0353 = +0
 R0067: -1 C0066 +1 C0067 -1 C0210 +1 C0354 = +0
 R0068: -1 C0067 +1 C0068 -1 C0211 +1 C0355 = +0
 R0069: -1 C0068 +1 C0069 -1 C0212 +1 C0356 = +0
 R0070: -1 C0069 +1 C0070 -1 C0213 +1 C0357 = +0
 R0071: -1 C0070 +1 C0071 -1 C0214 +1 C0358 = +0
 R0072: -1 C0071 +1 C0072 -1 C0215 +1 C0359 = +0
 R0073: -1 C0072 +1 C0073 -1 C0216 +1 C0360 = +0
 R0074: -1 C0073 +1 C0074 -1 C0217 +1 C0361 = +0
 R0075: -1 C0074 +1 C0075 -1 C0218 +1 C0362 = +0
 R0076: -1 C0075 +1 C0076 -1 C0219 +1 C0363 = +0
 R0077: -1 C0076 +1 C0077 -1 C0220 +1 C0364 = +0
 R0078: -1 C0077 +1 C0078 -1 C0221 +1 C0365 = +0
 R0079: -1 C0078 +1 C0079 -1 C0222 +1 C0366 = +0
 R0080: -1 C0079 +1 C0080 -1 C0223 +1 C0367 = +0
 R0081: -1 C0080 +1 C0081 -1 C0224 +1 C0368 = +0
 R0082: -1 C0081 +1 C0082 -1 C0225 +1 C0369 = +0
 R0083: -1 C0082 +1 C0083 -1 C0226 +1 C0370 = +0
 R0084: -1 C0083 +1 C0084 -1 C0227 +1 C0371 = +0
 R0085: -1 C0084 +1 C0085 -1 C0228 +1 C0372 = +0
 R0086: -1 C0085 +1 C0086 -1 C0229 +1 C0373 = +0
 R0087: -1 C0086 +1 C0087 -1 C0230 +1 C0374 = +0
 R0088: -1 C0087 +1 C0088 -1 C0231 +1 C0375 = +0
 R0089: -1 C0088 +1 C0089 -1 C0232 +1 C0376 = +0
 R0090: -1 C0089 +1 C0090 -1 C0233 +1 C0377 = +0
 R0091: -1 C0090 +1 C0091 -1 C0234 +1 C0378 = +0
 R0092: -1 C0091 +1 C0092 -1 C0235 +1 C0379 = +0
 R0093: -1 C0092 +1 C0093 -1 C0236 +1 C0380 = +0
 R0094: -1 C0093 +1 C0094 -1 C0237 +1 C0381 = +0
 R0095: -1 C0094 +1 C0095 -1 C0238 +1 C0382 = +0
 R0096: -1 C0095 +1 C0096 -1 C0239 +1 C0383 = +0
 R0097: -1 C0096 +1 C0097 -1 C0240 +1 C0384 = +0
 R0098: -1 C0097 +1 C0098 -1 C0241 +1 C0385 = +0
 R0099: -1 C0098 +1 C0099 -1 C0242 +1 C0386 = +0
 R0100: -1 C0099 +1 C0100 -1 C0243 +1 C0387 = +0
 R0101: -1 C0100 +1 C0101 -1 C0244 +1 C0388 = +0
 R0102: -1 C0101 +1 C0102 -1 C0245 +1 C0389 = +0
 R0103: -1 C0102 +1 C0103 -1 C0246 +1 C0390 = +0
 R0104: -1 C0103 +1 C0104 -1 C0247 +1 C0391 = +0
 R0105: -1 C0104 +1 C0105 -1 C0248 +1 C0392 = +0
 R0106: -1 C0105 +1 C0106 -1 C0249 +1 C0393 = +0
 R0107: -1 C0106 +1 C0107 -1 C0250 +1 C0394 = +0
 R0108: -1 C0107 +1 C0108 -1 C0251 +1 C0395 = +0
 R0109: -1 C0108 +1 C0109 -1 C0252 +1 C0396 = +0
 R0110: -1 C0109 +1 C0110 -1 C0253 +1 C0397 = +0
 R0111: -1 C0110 +1 C0111 -1 C0254 +1 C0398 = +0
 R0112: -1 C0111 +1 C0112 -1 C0255 +1 C0399 = +0
 R0113: -1 C0112 +1 C0113 -1 C0256 +1 C0400 = +0
 R0114: -1 C0113 +1 C0114 -1 C0257 +1 C0401 = +0
 R0115: -1 C0114 +1 C0115 -1 C0258 +1 C0402 = +0
 R0116: -1 C0115 +1 C0116 -1 C0259 +1 C0403 = +0
 R0117: -1 C0116 +1 C0117 -1 C0260 +1 C0404 = +0
 R0118: -1 C0117 +1 C0118 -1 C0261 +1 C0405 = +0
 R0119: -1 C0118 +1 C0119 -1 C0262 +1 C0406 = +0
 R0120: -1 C0119 +1 C0120 -1 C0263 +1 C0407 = +0
 R0121: -1 C0120 +1 C0121 -1 C0264 +1 C0408 = +0
 R0122: -1 C0121 +1 C0122 -1 C0265 +1 C0409 = +0
 R0123: -1 C0122 +1 C0123 -1 C0266 +1 C0410 = +0
 R0124: -1 C0123 +1 C0124 -1 C0267 +1 C0411 = +0
 R0125: -1 C0124 +1 C0125 -1 C0268 +1 C0412 = +0
 R0126: -1 C0125 +1 C0126 -1 C0269 +1 C0413 = +0
 R0127: -1 C0126 +1 C0127 -1 C0270 +1 C0414 = +0
 R0128: -1 C0127 +1 C0128 -1 C0271 +1 C0415 = +0
 R0129: -1 C0128 +1 C0129 -1 C0272 +1 C0416 = +0
 R0130: -1 C0129 +1 C0130 -1 C0273 +1 C0417 = +0
 R0131: -1 C0130 +1 C0131 -1 C0274 +1 C0418 = +0
 R0132: -1 C0131 +1 C0132 -1 C0275 +1 C0419 = +0
 R0133: -1 C0132 +1 C0133 -1 C0276 +1 C0420 = +0
 R0134: -1 C0133 +1 C0134 -1 C0277 +1 C0421 = +0
 R0135: -1 C0134 +1 C0135 -1 C0278 +1 C0422 = +0
 R0136: -1 C0135 +1 C0136 -1 C0279 +1 C0423 = +0
 R0137: -1 C0136 +1 C0137 -1 C0280 +1 C0424 = +0
 R0138: -1 C0137 +1 C0138 -1 C0281 +1 C0425 = +0
 R0139: -1 C0138 +1 C0139 -1 C0282 +1 C0426 = +0
 R0140: -1 C0139 +1 C0140 -1 C0283 +1 C0427 = +0
 R0141: -1 C0140 +1 C0141 -1 C0284 +1 C0428 = +0
 R0142: -1 C0141 +1 C0142 -1 C0285 +1 C0429 = +0
 R0143: -1 C0142 +1 C0143 -1 C0286 +1 C0430 = +0
 R0144: -1 C0143 +1 C0144 -1 C0287 +1 C0431 = +0
 R0145: +1 C0145 -167940 C0433 <= +0
 R0146: +1 C0146 -167940 C0434 <= +0
 R0147: +1 C0147 -167940 C0435 <= +0
 R0148: +1 C0148 -167940 C0436 <= +0
 R0149: +1 C0149 -167940 C0437 <= +0
 R0150: +1 C0150 -167940 C0438 <= +0
 R0151: +1 C0151 -167940 C0439 <= +0
 R0152: +1 C0152 -167940 C0440 <= +0
 R0153: +1 C0153 -167940 C0441 <= +0
 R0154: +1 C0154 -167940 C0442 <= +0
 R0155: +1 C0155 -167940 C0443 <= +0
 R0156: +1 C0156 -167940 C0444 <= +0
 R0157: +1 C0157 -167940 C0445 <= +0
 R0158: +1 C0158 -167940 C0446 <= +0
 R0159: +1 C0159 -167940 C0447 <= +0
 R0160: +1 C0160 -167940 C0448 <= +0
 R0161: +1 C0161 -167940 C0449 <= +0
 R0162: +1 C0162 -167940 C0450 <= +0
 R0163: +1 C0163 -167940 C0451 <= +0
 R0164: +1 C0164 -167940 C0452 <= +0
 R0165: +1 C0165 -167940 C0453 <= +0
 R0166: +1 C0166 -167940 C0454 <= +0
 R0167: +1 C0167 -167940 C0455 <= +0
 R0168: +1 C0168 -167940 C0456 <= +0
 R0169: +1 C0169 -167940 C0457 <= +0
 R0170: +1 C0170 -167940 C0458 <= +0
 R0171: +1 C0171 -167940 C0459 <= +0
 R0172: +1 C0172 -167940 C0460 <= +0
 R0173: +1 C0173 -167940 C0461 <= +0
 R0174: +1 C0174 -167940 C0462 <= +0
 R0175: +1 C0175 -167940 C0463 <= +0
 R0176: +1 C0176 -167940 C0464 <= +0
 R0177: +1 C0177 -167940 C0465 <= +0
 R0178: +1 C0178 -167940 C0466 <= +0
 R0179: +1 C0179 -167940 C0467 <= +0
 R0180: +1 C0180 -167940 C0468 <= +0
 R0181: +1 C0181 -167940 C0469 <= +0
 R0182: +1 C0182 -167940 C0470 <= +0
 R0183: +1 C0183 -167940 C0471 <= +0
 R0184: +1 C0184 -167940 C0472 <= +0
 R0185: +1 C0185 -167940 C0473 <= +0
 R0186: +1 C0186 -167940 C0474 <= +0
 R0187: +1 C0187 -167940 C0475 <= +0
 R0188: +1 C0188 -167940 C0476 <= +0
 R0189: +1 C0189 -167940 C0477 <= +0
 R0190: +1 C0190 -167940 C0478 <= +0
 R0191: +1 C0191 -167940 C0479 <= +0
 R0192: +1 C0192 -167940 C0480 <= +0
 R0193: +1 C0193 -167940 C0481 <= +0
 R0194: +1 C0194 -167940 C0482 <= +0
 R0195: +1 C0195 -167940 C0483 <= +0
 R0196: +1 C0196 -167940 C0484 <= +0
 R0197: +1 C0197 -167940 C0485 <= +0
 R0198: +1 C0198 -167940 C0486 <= +0
 R0199: +1 C0199 -167940 C0487 <= +0
 R0200: +1 C0200 -167940 C0488 <= +0
 R0201: +1 C0201 -167940 C0489 <= +0
 R0202: +1 C0202 -167940 C0490 <= +0
 R0203: +1 C0203 -167940 C0491 <= +0
 R0204: +1 C0204 -167940 C0492 <= +0
 R0205: +1 C0205 -167940 C0493 <= +0
 R0206: +1 C0206 -167940 C0494 <= +0
 R0207: +1 C0207 -167940 C0495 <= +0
 R0208: +1 C0208 -167940 C0496 <= +0
 R0209: +1 C0209 -167940 C0497 <= +0
 R0210: +1 C0210 -167940 C0498 <= +0
 R0211: +1 C0211 -167940 C0499 <= +0
 R0212: +1 C0212 -167940 C0500 <= +0
 R0213: +1 C0213 -167940 C0501 <= +0
 R0214: +1 C0214 -167940 C0502 <= +0
 R0215: +1 C0215 -167940 C0503 <= +0
 R0216: +1 C0216 -167940 C0504 <= +0
 R0217: +1 C0217 -167940 C0505 <= +0
 R0218: +1 C0218 -167940 C0506 <= +0
 R0219: +1 C0219 -167940 C0507 <= +0
 R0220: +1 C0220 -167940 C0508 <= +0
 R0221: +1 C0221 -167940 C0509 <= +0
 R0222: +1 C0222 -167940 C0510 <= +0
 R0223: +1 C0223 -167940 C0511 <= +0
 R0224: +1 C0224 -167940 C0512 <= +0
 R0225: +1 C0225 -167940 C0513 <= +0
 R0226: +1 C0226 -167940 C0514 <= +0
 R0227: +1 C0227 -167940 C0515 <= +0
 R0228: +1 C0228 -167940 C0516 <= +0
 R0229: +1 C0229 -167940 C0517 <= +0
 R0230: +1 C0230 -167940 C0518 <= +0
 R0231: +1 C0231 -167940 C0519 <= +0
 R0232: +1 C0232 -167940 C0520 <= +0
 R0233: +1 C0233 -167940 C0521 <= +0
 R0234: +1 C0234 -167940 C0522 <= +0
 R0235: +1 C0235 -167940 C0523 <= +0
 R0236: +1 C0236 -167940 C0524 <= +0
 R0237: +1 C0237 -167940 C0525 <= +0
 R0238: +1 C0238 -167940 C0526 <= +0
 R0239: +1 C0239 -167940 C0527 <= +0
 R0240: +1 C0240 -167940 C0528 <= +0
 R0241: +1 C0241 -167940 C0529 <= +0
 R0242: +1 C0242 -167940 C0530 <= +0
 R0243: +1 C0243 -167940 C0531 <= +0
 R0244: +1 C0244 -167940 C0532 <= +0
 R0245: +1 C0245 -167940 C0533 <= +0
 R0246: +1 C0246 -167940 C0534 <= +0
 R0247: +1 C0247 -167940 C0535 <= +0
 R0248: +1 C0248 -167940 C0536 <= +0
 R0249: +1 C0249 -167940 C0537 <= +0
 R0250: +1 C0250 -167940 C0538 <= +0
 R0251: +1 C0251 -167940 C0539 <= +0
 R0252: +1 C0252 -167940 C0540 <= +0
 R0253: +1 C0253 -167940 C0541 <= +0
 R0254: +1 C0254 -167940 C0542 <= +0
 R0255: +1 C0255 -167940 C0543 <= +0
 R0256: +1 C0256 -167940 C0544 <= +0
 R0257: +1 C0257 -167940 C0545 <= +0
 R0258: +1 C0258 -167940 C0546 <= +0
 R0259: +1 C0259 -167940 C0547 <= +0
 R0260: +1 C0260 -167940 C0548 <= +0
 R0261: +1 C0261 -167940 C0549 <= +0
 R0262: +1 C0262 -167940 C0550 <= +0
 R0263: +1 C0263 -167940 C0551 <= +0
 R0264: +1 C0264 -167940 C0552 <= +0
 R0265: +1 C0265 -167940 C0553 <= +0
 R0266: +1 C0266 -167940 C0554 <= +0
 R0267: +1 C0267 -167940 C0555 <= +0
 R0268: +1 C0268 -167940 C0556 <= +0
 R0269: +1 C0269 -167940 C0557 <= +0
 R0270: +1 C0270 -167940 C0558 <= +0
 R0271: +1 C0271 -167940 C0559 <= +0
 R0272: +1 C0272 -167940 C0560 <= +0
 R0273: +1 C0273 -167940 C0561 <= +0
 R0274: +1 C0274 -167940 C0562 <= +0
 R0275: +1 C0275 -167940 C0563 <= +0
 R0276: +1 C0276 -167940 C0564 <= +0
 R0277: +1 C0277 -167940 C0565 <= +0
 R0278: +1 C0278 -167940 C0566 <= +0
 R0279: +1 C0279 -167940 C0567 <= +0
 R0280: +1 C0280 -167940 C0568 <= +0
 R0281: +1 C0281 -167940 C0569 <= +0
 R0282: +1 C0282 -167940 C0570 <= +0
 R0283: +1 C0283 -167940 C0571 <= +0
 R0284: +1 C0284 -167940 C0572 <= +0
 R0285: +1 C0285 -167940 C0573 <= +0
 R0286: +1 C0286 -167940 C0574 <= +0
 R0287: +1 C0287 -167940 C0575 <= +0
 R0288: +1 C0288 -167940 C0576 <= +0
 R0289: +1 C0289 -167940 C0433 <= +0
 R0290: +1 C0290 -167940 C0434 <= +0
 R0291: +1 C0291 -167940 C0435 <= +0
 R0292: +1 C0292 -167940 C0436 <= +0
 R0293: +1 C0293 -167940 C0437 <= +0
 R0294: +1 C0294 -167940 C0438 <= +0
 R0295: +1 C0295 -167940 C0439 <= +0
 R0296: +1 C0296 -167940 C0440 <= +0
 R0297: +1 C0297 -167940 C0441 <= +0
 R0298: +1 C0298 -167940 C0442 <= +0
 R0299: +1 C0299 -167940 C0443 <= +0
 R0300: +1 C0300 -167940 C0444 <= +0
 R0301: +1 C0301 -167940 C0445 <= +0
 R0302: +1 C0302 -167940 C0446 <= +0
 R0303: +1 C0303 -167940 C0447 <= +0
 R0304: +1 C0304 -167940 C0448 <= +0
 R0305: +1 C0305 -167940 C0449 <= +0
 R0306: +1 C0306 -167940 C0450 <= +0
 R0307: +1 C0307 -167940 C0451 <= +0
 R0308: +1 C0308 -167940 C0452 <= +0
 R0309: +1 C0309 -167940 C0453 <= +0
 R0310: +1 C0310 -167940 C0454 <= +0
 R0311: +1 C0311 -167940 C0455 <= +0
 R0312: +1 C0312 -167940 C0456 <= +0
 R0313: +1 C0313 -167940 C0457 <= +0
 R0314: +1 C0314 -167940 C0458 <= +0
 R0315: +1 C0315 -167940 C0459 <= +0
 R0316: +1 C0316 -167940 C0460 <= +0
 R0317: +1 C0317 -167940 C0461 <= +0
 R0318: +1 C0318 -167940 C0462 <= +0
 R0319: +1 C0319 -167940 C0463 <= +0
 R0320: +1 C0320 -167940 C0464 <= +0
 R0321: +1 C0321 -167940 C0465 <= +0
 R0322: +1 C0322 -167940 C0466 <= +0
 R0323: +1 C0323 -167940 C0467 <= +0
 R0324: +1 C0324 -167940 C0468 <= +0
 R0325: +1 C0325 -167940 C0469 <= +0
 R0326: +1 C0326 -167940 C0470 <= +0
 R0327: +1 C0327 -167940 C0471 <= +0
 R0328: +1 C0328 -167940 C0472 <= +0
 R0329: +1 C0329 -167940 C0473 <= +0
 R0330: +1 C0330 -167940 C0474 <= +0
 R0331: +1 C0331 -167940 C0475 <= +0
 R0332: +1 C0332 -167940 C0476 <= +0
 R0333: +1 C0333 -167940 C0477 <= +0
 R0334: +1 C0334 -167940 C0478 <= +0
 R0335: +1 C0335 -167940 C0479 <= +0
 R0336: +1 C0336 -167940 C0480 <= +0
 R0337: +1 C0337 -167940 C0481 <= +0
 R0338: +1 C0338 -167940 C0482 <= +0
 R0339: +1 C0339 -167940 C0483 <= +0
 R0340: +1 C0340 -167940 C0484 <= +0
 R0341: +1 C0341 -167940 C0485 <= +0
 R0342: +1 C0342 -167940 C0486 <= +0
 R0343: +1 C0343 -167940 C0487 <= +0
 R0344: +1 C0344 -167940 C0488 <= +0
 R0345: +1 C0345 -167940 C0489 <= +0
 R0346: +1 C0346 -167940 C0490 <= +0
 R0347: +1 C0347 -167940 C0491 <= +0
 R0348: +1 C0348 -167940 C0492 <= +0
 R0349: +1 C0349 -167940 C0493 <= +0
 R0350: +1 C0350 -167940 C0494 <= +0
 R0351: +1 C0351 -167940 C0495 <= +0
 R0352: +1 C0352 -167940 C0496 <= +0
 R0353: +1 C0353 -167940 C0497 <= +0
 R0354: +1 C0354 -167940 C0498 <= +0
 R0355: +1 C0355 -167940 C0499 <= +0
 R0356: +1 C0356 -167940 C0500 <= +0
 R0357: +1 C0357 -167940 C0501 <= +0
 R0358: +1 C0358 -167940 C0502 <= +0
 R0359: +1 C0359 -167940 C0503 <= +0
 R0360: +1 C0360 -167940 C0504 <= +0
 R0361: +1 C0361 -167940 C0505 <= +0
 R0362: +1 C0362 -167940 C0506 <= +0
 R0363: +1 C0363 -167940 C0507 <= +0
 R0364: +1 C0364 -167940 C0508 <= +0
 R0365: +1 C0365 -167940 C0509 <= +0
 R0366: +1 C0366 -167940 C0510 <= +0
 R0367: +1 C0367 -167940 C0511 <= +0
 R0368: +1 C0368 -167940 C0512 <= +0
 R0369: +1 C0369 -167940 C0513 <= +0
 R0370: +1 C0370 -167940 C0514 <= +0
 R0371: +1 C0371 -167940 C0515 <= +0
 R0372: +1 C0372 -167940 C0516 <= +0
 R0373: +1 C0373 -167940 C0517 <= +0
 R0374: +1 C0374 -167940 C0518 <= +0
 R0375: +1 C0375 -167940 C0519 <= +0
 R0376: +1 C0376 -167940 C0520 <= +0
 R0377: +1 C0377 -167940 C0521 <= +0
 R0378: +1 C0378 -167940 C0522 <= +0
 R0379: +1 C0379 -167940 C0523 <= +0
 R0380: +1 C0380 -167940 C0524 <= +0
 R0381: +1 C0381 -167940 C0525 <= +0
 R0382: +1 C0382 -167940 C0526 <= +0
 R0383: +1 C0383 -167940 C0527 <= +0
 R0384: +1 C0384 -167940 C0528 <= +0
 R0385: +1 C0385 -167940 C0529 <= +0
 R0386: +1 C0386 -167940 C0530 <= +0
 R0387: +1 C0387 -167940 C0531 <= +0
 R0388: +1 C0388 -167940 C0532 <= +0
 R0389: +1 C0389 -167940 C0533 <= +0
 R0390: +1 C0390 -167940 C0534 <= +0
 R0391: +1 C0391 -167940 C0535 <= +0
 R0392: +1 C0392 -167940 C0536 <= +0
 R0393: +1 C0393 -167940 C0537 <= +0
 R0394: +1 C0394 -167940 C0538 <= +0
 R0395: +1 C0395 -167940 C0539 <= +0
 R0396: +1 C0396 -167940 C0540 <= +0
 R0397: +1 C0397 -167940 C0541 <= +0
 R0398: +1 C0398 -167940 C0542 <= +0
 R0399: +1 C0399 -167940 C0543 <= +0
 R0400: +1 C0400 -167940 C0544 <= +0
 R0401: +1 C0401 -167940 C0545 <= +0
 R0402: +1 C0402 -167940 C0546 <= +0
 R0403: +1 C0403 -167940 C0547 <= +0
 R0404: +1 C0404 -167940 C0548 <= +0
 R0405: +1 C0405 -167940 C0549 <= +0
 R0406: +1 C0406 -167940 C0550 <= +0
 R0407: +1 C0407 -167940 C0551 <= +0
 R0408: +1 C0408 -167940 C0552 <= +0
 R0409: +1 C0409 -167940 C0553 <= +0
 R0410: +1 C0410 -167940 C0554 <= +0
 R0411: +1 C0411 -167940 C0555 <= +0
 R0412: +1 C0412 -167940 C0556 <= +0
 R0413: +1 C0413 -167940 C0557 <= +0
 R0414: +1 C0414 -167940 C0558 <= +0
 R0415: +1 C0415 -167940 C0559 <= +0
 R0416: +1 C0416 -167940 C0560 <= +0
 R0417: +1 C0417 -167940 C0561 <= +0
 R0418: +1 C0418 -167940 C0562 <= +0
 R0419: +1 C0419 -167940 C0563 <= +0
 R0420: +1 C0420 -167940 C0564 <= +0
 R0421: +1 C0421 -167940 C0565 <= +0
 R0422: +1 C0422 -167940 C0566 <= +0
 R0423: +1 C0423 -167940 C0567 <= +0
 R0424: +1 C0424 -167940 C0568 <= +0
 R0425: +1 C0425 -167940 C0569 <= +0
 R0426: +1 C0426 -167940 C0570 <= +0
 R0427: +1 C0427 -167940 C0571 <= +0
 R0428: +1 C0428 -167940 C0572 <= +0
 R0429: +1 C0429 -167940 C0573 <= +0
 R0430: +1 C0430 -167940 C0574 <= +0
 R0431: +1 C0431 -167940 C0575 <= +0
 R0432: +1 C0432 -167940 C0576 <= +0
Bounds
 0 <= C0575 <= 1
 0 <= C0433 <= 1
 0 <= C0434 <= 1
 0 <= C0435 <= 1
 0 <= C0436 <= 1
 0 <= C0437 <= 1
 0 <= C0438 <= 1
 0 <= C0439 <= 1
 0 <= C0440 <= 1
 0 <= C0441 <= 1
 0 <= C0442 <= 1
 0 <= C0443 <= 1
 0 <= C0444 <= 1
 0 <= C0445 <= 1
 0 <= C0446 <= 1
 0 <= C0447 <= 1
 0 <= C0448 <= 1
 0 <= C0449 <= 1
 0 <= C0450 <= 1
 0 <= C0451 <= 1
 0 <= C0452 <= 1
 0 <= C0453 <= 1
 0 <= C0454 <= 1
 0 <= C0455 <= 1
 0 <= C0456 <= 1
 0 <= C0457 <= 1
 0 <= C0458 <= 1
 0 <= C0459 <= 1
 0 <= C0460 <= 1
 0 <= C0461 <= 1
 0 <= C0462 <= 1
 0 <= C0463 <= 1
 0 <= C0464 <= 1
 0 <= C0465 <= 1
 0 <= C0466 <= 1
 0 <= C0467 <= 1
 0 <= C0468 <= 1
 0 <= C0469 <= 1
 0 <= C0470 <= 1
 0 <= C0471 <= 1
 0 <= C0472 <= 1
 0 <= C0473 <= 1
 0 <= C0474 <= 1
 0 <= C0475 <= 1
 0 <= C0476 <= 1
 0 <= C0477 <= 1
 0 <= C0478 <= 1
 0 <= C0479 <= 1
 0 <= C0480 <= 1
 0 <= C0481 <= 1
 0 <= C0482 <= 1
 0 <= C0483 <= 1
 0 <= C0484 <= 1
 0 <= C0485 <= 1
 0 <= C0486 <= 1
 0 <= C0487 <= 1
 0 <= C0488 <= 1
 0 <= C0489 <= 1
 0 <= C0490 <= 1
 0 <= C0491 <= 1
 0 <= C0492 <= 1
 0 <= C0493 <= 1
 0 <= C0494 <= 1
 0 <= C0495 <= 1
 0 <= C0496 <= 1
 0 <= C0497 <= 1
 0 <= C0498 <= 1
 0 <= C0499 <= 1
 0 <= C0500 <= 1
 0 <= C0501 <= 1
 0 <= C0502 <= 1
 0 <= C0503 <= 1
 0 <= C0504 <= 1
 0 <= C0505 <= 1
 0 <= C0506 <= 1
 0 <= C0507 <= 1
 0 <= C0508 <= 1
 0 <= C0509 <= 1
 0 <= C0510 <= 1
 0 <= C0511 <= 1
 0 <= C0512 <= 1
 0 <= C0513 <= 1
 0 <= C0514 <= 1
 0 <= C0515 <= 1
 0 <= C0516 <= 1
 0 <= C0517 <= 1
 0 <= C0518 <= 1
 0 <= C0519 <= 1
 0 <= C0520 <= 1
 0 <= C0521 <= 1
 0 <= C0522 <= 1
 0 <= C0523 <= 1
 0 <= C0524 <= 1
 0 <= C0525 <= 1
 0 <= C0526 <= 1
 0 <= C0527 <= 1
 0 <= C0528 <= 1
 0 <= C0529 <= 1
 0 <= C0530 <= 1
 0 <= C0531 <= 1
 0 <= C0532 <= 1
 0 <= C0533 <= 1
 0 <= C0534 <= 1
 0 <= C0535 <= 1
 0 <= C0536 <= 1
 0 <= C0537 <= 1
 0 <= C0538 <= 1
 0 <= C0539 <= 1
 0 <= C0540 <= 1
 0 <= C0541 <= 1
 0 <= C0542 <= 1
 0 <= C0543 <= 1
 0 <= C0544 <= 1
 0 <= C0545 <= 1
 0 <= C0546 <= 1
 0 <= C0547 <= 1
 0 <= C0548 <= 1
 0 <= C0549 <= 1
 0 <= C0550 <= 1
 0 <= C0551 <= 1
 0 <= C0552 <= 1
 0 <= C0553 <= 1
 0 <= C0554 <= 1
 0 <= C0555 <= 1
 0 <= C0556 <= 1
 0 <= C0557 <= 1
 0 <= C0558 <= 1
 0 <= C0559 <= 1
 0 <= C0560 <= 1
 0 <= C0561 <= 1
 0 <= C0562 <= 1
 0 <= C0563 <= 1
 0 <= C0564 <= 1
 0 <= C0565 <= 1
 0 <= C0566 <= 1
 0 <= C0567 <= 1
 0 <= C0568 <= 1
 0 <= C0569 <= 1
 0 <= C0570 <= 1
 0 <= C0571 <= 1
 0 <= C0572 <= 1
 0 <= C0573 <= 1
 0 <= C0574 <= 1
 0 <= C0576 <= 1
 36085 <= C0001
 31408 <= C0002
 27754 <= C0003
 24592 <= C0004
 21508 <= C0005
 18737 <= C0006
 16268 <= C0007
 14268 <= C0008
 12563 <= C0009
 11106 <= C0010
 9861 <= C0011
 8823 <= C0012
 7906 <= C0013
 7081 <= C0014
 6321 <= C0015
 5589 <= C0016
 5028 <= C0017
 4719 <= C0018
 4378 <= C0019
 4000 <= C0020
 3747 <= C0021
 3511 <= C0022
 3295 <= C0023
 3200 <= C0024
 3079 <= C0025
 3017 <= C0026
 3034 <= C0027
 3235 <= C0028
 3479 <= C0029
 3824 <= C0030
 4213 <= C0031
 4715 <= C0032
 5517 <= C0033
 6576 <= C0034
 8004 <= C0035
 10059 <= C0036
 12157 <= C0037
 14791 <= C0038
 17809 <= C0039
 21195 <= C0040
 24919 <= C0041
 29343 <= C0042
 34195 <= C0043
 38573 <= C0044
 42409 <= C0045
 46741 <= C0046
 50712 <= C0047
 54742 <= C0048
 58850 <= C0049
 62396 <= C0050
 65664 <= C0051
 68105 <= C0052
 70411 <= C0053
 71627 <= C0054
 73451 <= C0055
 74909 <= C0056
 76142 <= C0057
 77507 <= C0058
 79237 <= C0059
 81243 <= C0060
 83374 <= C0061
 85175 <= C0062
 86293 <= C0063
 87098 <= C0064
 88582 <= C0065
 88837 <= C0066
 89660 <= C0067
 90787 <= C0068
 90379 <= C0069
 90046 <= C0070
 90375 <= C0071
 90819 <= C0072
 91343 <= C0073
 90760 <= C0074
 89970 <= C0075
 89633 <= C0076
 89961 <= C0077
 90393 <= C0078
 93029 <= C0079
 95265 <= C0080
 95723 <= C0081
 95420 <= C0082
 94760 <= C0083
 93913 <= C0084
 92639 <= C0085
 91348 <= C0086
 90266 <= C0087
 89284 <= C0088
 88211 <= C0089
 87583 <= C0090
 87773 <= C0091
 86931 <= C0092
 86541 <= C0093
 86085 <= C0094
 86099 <= C0095
 85975 <= C0096
 86293 <= C0097
 86356 <= C0098
 86846 <= C0099
 88480 <= C0100
 89047 <= C0101
 90412 <= C0102
 92773 <= C0103
 94498 <= C0104
 96964 <= C0105
 100355 <= C0106
 103619 <= C0107
 107127 <= C0108
 111208 <= C0109
 113727 <= C0110
 117459 <= C0111
 121927 <= C0112
 128423 <= C0113
 136076 <= C0114
 144482 <= C0115
 151278 <= C0116
 155701 <= C0117
 159808 <= C0118
 161999 <= C0119
 162632 <= C0120
 164296 <= C0121
 166314 <= C0122
 166171 <= C0123
 165293 <= C0124
 166665 <= C0125
 167940 <= C0126
 167241 <= C0127
 165101 <= C0128
 161337 <= C0129
 159232 <= C0130
 154210 <= C0131
 147027 <= C0132
 139904 <= C0133
 129898 <= C0134
 118625 <= C0135
 106991 <= C0136
 95730 <= C0137
 85644 <= C0138
 76796 <= C0139
 67836 <= C0140
 60614 <= C0141
 53639 <= C0142
 47918 <= C0143
 43656 <= C0144
Binaries
 C0575 C0433 C0434 C0435 C0436 C0437 C0438 C0439 C0440 C0441 C0442 C0443 C0444 C0445 C0446 C0447 C0448
 C0449 C0450 C0451 C0452 C0453 C0454 C0455 C0456 C0457 C0458 C0459 C0460 C0461 C0462 C0463 C0464 C0465
 C0466 C0467 C0468 C0469 C0470 C0471 C0472 C0473 C0474 C0475 C0476 C0477 C0478 C0479 C0480 C0481 C0482
 C0483 C0484 C0485 C0486 C0487 C0488 C0489 C0490 C0491 C0492 C0493 C0494 C0495 C0496 C0497 C0498 C0499
 C0500 C0501 C0502 C0503 C0504 C0505 C0506 C0507 C0508 C0509 C0510 C0511 C0512 C0513 C0514 C0515 C0516
 C0517 C0518 C0519 C0520 C0521 C0522 C0523 C0524 C0525 C0526 C0527 C0528 C0529 C0530 C0531 C0532 C0533
 C0534 C0535 C0536 C0537 C0538 C0539 C0540 C0541 C0542 C0543 C0544 C0545 C0546 C0547 C0548 C0549 C0550
 C0551 C0552 C0553 C0554 C0555 C0556 C0557 C0558 C0559 C0560 C0561 C0562 C0563 C0564 C0565 C0566 C0567
 C0568 C0569 C0570 C0571 C0572 C0573 C0574 C0576
End
